Maximize

9 dSta_0 + 6 d0_2 + 2 d0_2 + 0 d0_2.0 + 4 d0_2.0 + 3 d2_3 + 4 d2_3 + 0 d2_3.0 + 8 d2_3.0 + 2 d3_4 + 0 d3_4 + 2 d3_4.0 + 4 d3_4.0 + 7 d4_5 + 0 d4_5 + 4 d4_5.0 + 8 d4_5.0 + 3 d5_6 + 0 d5_6 + 4 d5_6.0 + 8 d5_6.0 + 4 d6_7 + 0 d6_7 + 2 d6_7.0 + 4 d6_7.0 + 5 d6_8 + 0 d6_8 + 2 d6_8.0 + 4 d6_8.0 + 1 d7_13 + 0 d7_13 + 4 d7_13.0 + 8 d7_13.0 + 4 d8_9 + 0 d8_9 + 4 d8_9.0 + 8 d8_9.0 + 3 d8_6 + 0 d8_6 + 4 d8_6.0 + 8 d8_6.0 + 4 d9_10 + 0 d9_10 + 4 d9_10.0 + 8 d9_10.0 + 7 d9_5 + 0 d9_5 + 4 d9_5.0 + 8 d9_5.0 + 4 d10_11 + 0 d10_11 + 4 d10_11.0 + 8 d10_11.0 + 2 d10_4 + 0 d10_4 + 4 d10_4.0 + 8 d10_4.0 + 1 d11_12 + 0 d11_12 + 4 d11_12.0 + 8 d11_12.0 + 3 d11_3 + 0 d11_3 + 4 d11_3.0 + 8 d11_3.0 + 1 d12_13 + 0 d12_13 + 2 d12_13.0 + 4 d12_13.0 + 4 d13_1 + 0 d13_1 + 2 d13_1.0 + 4 d13_1.0


Subject to


\ === tcfg constraints ===
dSta_0 = 1
b0 - d0_2 = 0
b0 - dSta_0 = 0
b1 - d13_1 = 0
b2 - d2_3 = 0
b2 - d0_2 = 0
b3 - d3_4 = 0
b3 - d2_3 - d11_3 = 0
b4 - d4_5 = 0
b4 - d3_4 - d10_4 = 0
b5 - d5_6 = 0
b5 - d4_5 - d9_5 = 0
b6 - d6_7 - d6_8 = 0
b6 - d5_6 - d8_6 = 0
b7 - d7_13 = 0
b7 - d6_7 = 0
b8 - d8_9 - d8_6 = 0
b8 - d6_8 = 0
b9 - d9_10 - d9_5 = 0
b9 - d8_9 = 0
b10 - d10_11 - d10_4 = 0
b10 - d9_10 = 0
b11 - d11_12 - d11_3 = 0
b11 - d10_11 = 0
b12 - d12_13 = 0
b12 - d11_12 = 0
b13 - d13_1 = 0
b13 - d7_13 - d12_13 = 0


\ === tcfg_estunit_cons_ps ===
d0_2 - d0_2.0 >= 0
d0_2.0 <= 1
d2_3 - d2_3.0 >= 0
d2_3.0 <= 1
d3_4 - d3_4.0 >= 0
d3_4.0 <= 1
d4_5 - d4_5.0 >= 0
d4_5.0 <= 1
d5_6 - d5_6.0 >= 0
d5_6.0 <= 1
d6_7 - d6_7.0 >= 0
d6_7.0 <= 1
d6_8 - d6_8.0 >= 0
d6_8.0 <= 1
d7_13 - d7_13.0 >= 0
d7_13.0 <= 1
d8_9 - d8_9.0 >= 0
d8_9.0 <= 1
d8_6 - d8_6.0 >= 0
d8_6.0 <= 1
d9_10 - d9_10.0 >= 0
d9_10.0 <= 1
d9_5 - d9_5.0 >= 0
d9_5.0 <= 1
d10_11 - d10_11.0 >= 0
d10_11.0 <= 1
d10_4 - d10_4.0 >= 0
d10_4.0 <= 1
d11_12 - d11_12.0 >= 0
d11_12.0 <= 1
d11_3 - d11_3.0 >= 0
d11_3.0 <= 1
d12_13 - d12_13.0 >= 0
d12_13.0 <= 1
d13_1 - d13_1.0 >= 0
d13_1.0 <= 1

\ === infeasible path constraints ===

b2 = 1
b13 = 1
b0 = 1
b1 = 1
b11- 5 b2 =  0
b10- 5 b3 =  0
b9- 5 b4 =  0
b8- 5 b5 =  0

Generals

Sta
b0
d0_2
b1
b2
d2_3
b3
d3_4
b4
d4_5
b5
d5_6
b6
d6_7
d6_8
b7
d7_13
b8
d8_9
d8_6
b9
d9_10
d9_5
b10
d10_11
d10_4
b11
d11_12
d11_3
b12
d12_13
b13
d13_1

End
\ total_cons: 72 	total_vars: 33
